13989.0	121.0
13908.0	117.0
12452.0	102.0
12463.0	104.0
13006.0	112.0
12189.0	92.0
10159.0	73.0
10381.0	87.0
8390.0	59.0
8214.0	50.0
8041.0	38.0
8136.0	46.0
8360.0	57.0
8265.0	52.0
8544.0	60.0
9344.0	66.0
8975.0	65.0
8829.0	61.0
8934.0	62.0
